This is Ipopt version 3.10.0, running with linear solver ma27.

Number of nonzeros in equality constraint Jacobian...:        0
Number of nonzeros in inequality constraint Jacobian.:       48
Number of nonzeros in Lagrangian Hessian.............:        0

Total number of variables............................:        6
                     variables with only lower bounds:        3
                variables with lower and upper bounds:        3
                     variables with only upper bounds:        0
Total number of equality constraints.................:        0
Total number of inequality constraints...............:        8
        inequality constraints with only lower bounds:        0
   inequality constraints with lower and upper bounds:        0
        inequality constraints with only upper bounds:        8

iter    objective    inf_pr   inf_du lg(mu)  ||d||  lg(rg) alpha_du alpha_pr  ls
   0  3.8435673e+00 3.35e+00 1.50e+00   0.0 0.00e+00    -  0.00e+00 0.00e+00   0
   1  3.8438391e+00 3.35e+00 9.15e+00  -6.2 1.36e+00    -  8.53e-02 5.65e-04h  5
   2  3.8437376e+00 3.35e+00 1.22e+03  -0.2 1.64e+00    -  9.13e-01 9.81e-07h 14
   3  3.8446240e+00 3.35e+00 3.12e+04   0.1 1.41e+00    -  2.28e-01 2.85e-04h  6
   4r 3.8446331e+00 3.35e+00 1.00e+03   0.5 0.00e+00    -  0.00e+00 3.11e-07R 16
   5r 5.2682947e+00 2.17e+00 1.00e+03   2.5 1.93e+03    -  4.82e-03 1.73e-03f  1
   6  5.2544632e+00 2.11e+00 2.00e+03  -0.0 2.55e+00    -  1.44e-01 2.19e-02h  1
   7  5.4863927e+00 2.17e+00 4.63e+03   2.1 4.08e+01    -  1.08e-02 4.01e-03f  2
   8  5.2895897e+00 2.09e+00 3.26e+03   0.2 1.55e+01    -  6.47e-03 1.26e-02h  1
   9  5.2614435e+00 2.11e+00 9.78e+04   0.5 3.03e+00    -  1.16e-01 4.68e-03f  2
